certificates/rado_a10_c288_N29.cnf
c Rad2 upper bound instance: x1 + 10*x2 - x3 = 288, interval [1,29]
p cnf 29 120
1 3 29 0
-1 -3 -29 0
2 4 29 0
-2 -4 -29 0
3 5 29 0
-3 -5 -29 0
4 6 29 0
-4 -6 -29 0
5 7 29 0
-5 -7 -29 0
6 8 29 0
-6 -8 -29 0
7 9 29 0
-7 -9 -29 0
8 10 29 0
-8 -10 -29 0
1 9 28 0
-1 -9 -28 0
9 11 29 0
-9 -11 -29 0
2 10 28 0
-2 -10 -28 0
10 12 29 0
-10 -12 -29 0
3 11 28 0
-3 -11 -28 0
11 13 29 0
-11 -13 -29 0
4 12 28 0
-4 -12 -28 0
12 14 29 0
-12 -14 -29 0
5 13 28 0
-5 -13 -28 0
13 15 29 0
-13 -15 -29 0
6 14 28 0
-6 -14 -28 0
14 16 29 0
-14 -16 -29 0
7 15 28 0
-7 -15 -28 0
15 17 29 0
-15 -17 -29 0
8 16 28 0
-8 -16 -28 0
16 18 29 0
-16 -18 -29 0
9 17 28 0
-9 -17 -28 0
17 19 29 0
-17 -19 -29 0
10 18 28 0
-10 -18 -28 0
18 20 29 0
-18 -20 -29 0
1 19 27 0
-1 -19 -27 0
11 19 28 0
-11 -19 -28 0
19 21 29 0
-19 -21 -29 0
2 20 27 0
-2 -20 -27 0
12 20 28 0
-12 -20 -28 0
20 22 29 0
-20 -22 -29 0
3 21 27 0
-3 -21 -27 0
13 21 28 0
-13 -21 -28 0
21 23 29 0
-21 -23 -29 0
4 22 27 0
-4 -22 -27 0
14 22 28 0
-14 -22 -28 0
22 24 29 0
-22 -24 -29 0
5 23 27 0
-5 -23 -27 0
15 23 28 0
-15 -23 -28 0
23 25 29 0
-23 -25 -29 0
6 24 27 0
-6 -24 -27 0
16 24 28 0
-16 -24 -28 0
24 26 29 0
-24 -26 -29 0
7 25 27 0
-7 -25 -27 0
17 25 28 0
-17 -25 -28 0
25 27 29 0
-25 -27 -29 0
8 26 27 0
-8 -26 -27 0
18 26 28 0
-18 -26 -28 0
26 28 29 0
-26 -28 -29 0
9 27 0
-9 -27 0
19 27 28 0
-19 -27 -28 0
27 29 0
-27 -29 0
10 27 28 0
-10 -27 -28 0
20 28 0
-20 -28 0
1 26 29 0
-1 -26 -29 0
11 27 29 0
-11 -27 -29 0
21 28 29 0
-21 -28 -29 0
