certificates/rado_a10_c288_N29.drat
-29 0
27 0
-9 0
7 0
11 0
-25 0
23 0
-5 0
3 0
-21 0
-28 0
19 0
13 0
0
